34 20
9 196
9 599
17 917
10 366
2 572
5 608
9 936
5 939
6 877
17 173
18 689
11 928
10 89
9 198
12 595
19 696
5 728
5 760
18 44
8 751
18 940
6 155
19 886
6 148
8 690
11 161
12 487
19 868
1 136
17 173
9 734
10 179
17 276
10 53
